p cnf 405 721
e 272 277 282 287 292 271 276 281 286 291 268 273 278 283 288 269 274 279 284 289 270 275 280 285 290 223 230 228 229 225 256 257 258 235 250 246 240 234 217 219 233 213 218 231 221 216 215 242 244 237 249 239 245 214 224 232 259 262 263 261 255 248 243 236 238 264 265 266 267 220 222 260 226 227 253 252 251 247 254 241 197 198 195 196 203 202 199 200 201 192 191 188 189 190 204 205 193 194 210 209 206 207 208 293 294 296 300 298 295 299 297 211 212 303 305 304 302 301 186 187 0
a 123 124 130 129 126 127 128 91 92 0
e 80 122 78 67 86 81 84 85 82 83 103 102 101 79 77 68 66 65 62 63 64 0
a 117 118 0
e 119 120 121 125 0
a 89 90 0
e 132 93 94 98 99 100 0
a 108 107 104 105 106 0
e 131 109 1 2 3 4 5 6 7 8 9 10 11 12 13 14 15 16 17 18 19 20 21 22 23 24 25 26 27 28 29 30 31 32 33 34 35 36 37 38 39 40 41 42 43 44 45 46 47 48 49 50 51 52 53 54 55 56 57 58 59 60 61 69 70 71 72 73 74 75 76 87 88 95 96 97 115 116 133 134 135 136 137 138 139 140 141 142 143 144 145 146 147 148 149 150 151 152 153 154 155 156 157 158 159 160 161 162 163 164 165 166 167 168 169 170 171 172 173 174 175 176 177 178 179 180 181 182 183 184 185 306 307 308 309 310 311 312 313 314 315 316 317 318 319 320 321 322 323 324 325 326 327 328 329 330 331 332 333 334 335 336 337 338 339 340 341 342 343 344 345 346 347 348 349 350 351 352 353 354 355 356 357 358 359 360 361 362 363 364 365 366 367 368 369 370 371 372 373 374 375 376 377 378 379 380 381 382 383 384 385 386 387 388 389 390 391 392 393 394 395 396 397 398 399 400 401 402 403 404 405 0
d 114 117 118 108 89 90 0
d 113 117 118 107 89 90 0
d 110 117 118 104 89 90 0
d 111 117 118 105 89 90 0
d 112 117 118 106 89 90 0
-77 -100 109 112 0
-79 -100 109 111 0
-101 -100 109 110 0
-102 -100 109 113 0
-103 -100 109 114 0
-110 -100 109 101 0
-111 -100 109 79 0
-112 -100 109 77 0
-113 -100 109 102 0
-114 -100 109 103 0
-80 85 0
-78 83 0
-122 82 0
-119 86 0
-121 84 0
-120 81 0
-110 125 131 132 62 0
-111 125 131 132 63 0
-112 125 131 132 64 0
-113 125 131 132 65 0
-114 125 131 132 66 0
-62 125 131 132 110 0
-63 125 131 132 111 0
-64 125 131 132 112 0
-65 125 131 132 113 0
-66 125 131 132 114 0
-92 -91 67 0
-92 -91 68 0
-63 92 91 0
-64 92 91 0
-66 92 91 0
92 91 65 0
92 91 62 0
-75 182 0
-76 185 0
62 306 0
-62 -306 0
63 307 0
-63 -307 0
64 308 0
-64 -308 0
65 309 0
-65 -309 0
66 310 0
-66 -310 0
67 -63 0
-67 63 0
342 -64 0
-342 64 0
343 -63 0
-343 63 0
75 68 0
-75 -68 0
76 68 0
-76 -68 0
344 -78 -62 68 0
-344 78 0
-344 62 0
-344 -68 0
345 -64 -68 0
-345 64 0
-345 68 0
78 -334 336 0
-78 334 0
-78 -336 0
346 -80 -62 68 0
-346 80 0
-346 62 0
-346 -68 0
347 -63 -68 0
-347 63 0
-347 68 0
80 -334 335 0
-80 334 0
-80 -335 0
81 -65 0
-81 65 0
82 -66 0
-82 66 0
83 -65 0
-83 65 0
84 -66 0
-84 66 0
85 -65 0
-85 65 0
86 -66 0
-86 66 0
89 311 0
-89 -311 0
90 312 0
-90 -312 0
91 313 0
-91 -313 0
92 314 0
-92 -314 0
348 91 0
-348 -91 0
349 -89 0
-349 89 0
350 -94 0
-350 94 0
351 92 0
-351 -92 0
352 -90 0
-352 90 0
353 -89 91 0
-353 89 0
-353 -91 0
354 -91 89 0
-354 91 0
-354 -89 0
355 -90 92 0
-355 90 0
-355 -92 0
356 -92 90 0
-356 92 0
-356 -90 0
357 -98 0
-357 98 0
358 -89 -93 -98 94 91 0
-358 89 0
-358 93 0
-358 98 0
-358 -94 0
-358 -91 0
359 -90 -94 -99 98 92 0
-359 90 0
-359 94 0
-359 99 0
-359 -98 0
-359 -92 0
101 -62 -68 0
-101 62 0
-101 68 0
102 -65 -68 0
-102 65 0
-102 68 0
103 -66 -68 0
-103 66 0
-103 68 0
104 315 0
-104 -315 0
105 316 0
-105 -316 0
106 317 0
-106 -317 0
107 318 0
-107 -318 0
108 319 0
-108 -319 0
360 -104 62 0
-360 104 0
-360 -62 0
361 -105 63 0
-361 105 0
-361 -63 0
362 -106 64 0
-362 106 0
-362 -64 0
363 -107 65 0
-363 107 0
-363 -65 0
364 -108 66 0
-364 108 0
-364 -66 0
365 -62 104 0
-365 62 0
-365 -104 0
366 -63 105 0
-366 63 0
-366 -105 0
367 -64 106 0
-367 64 0
-367 -106 0
368 -65 107 0
-368 65 0
-368 -107 0
369 -66 108 0
-369 66 0
-369 -108 0
110 320 0
-110 -320 0
111 321 0
-111 -321 0
112 322 0
-112 -322 0
113 323 0
-113 -323 0
114 324 0
-114 -324 0
117 325 0
-117 -325 0
118 326 0
-118 -326 0
370 -86 68 118 117 0
-370 86 0
-370 -68 0
-370 -118 0
-370 -117 0
371 -338 339 0
-371 338 0
-371 -339 0
372 -81 -117 68 118 0
-372 81 0
-372 117 0
-372 -68 0
-372 -118 0
373 -338 341 0
-373 338 0
-373 -341 0
374 -84 -118 68 117 0
-374 84 0
-374 118 0
-374 -68 0
-374 -117 0
375 -338 340 0
-375 338 0
-375 -340 0
122 -334 337 0
-122 334 0
-122 -337 0
123 327 0
-123 -327 0
124 328 0
-124 -328 0
376 -123 117 0
-376 123 0
-376 -117 0
377 -124 118 0
-377 124 0
-377 -118 0
378 -117 123 0
-378 117 0
-378 -123 0
379 -118 124 0
-379 118 0
-379 -124 0
126 329 0
-126 -329 0
127 330 0
-127 -330 0
128 331 0
-128 -331 0
129 332 0
-129 -332 0
130 333 0
-130 -333 0
380 -126 104 0
-380 126 0
-380 -104 0
381 -127 105 0
-381 127 0
-381 -105 0
382 -128 106 0
-382 128 0
-382 -106 0
383 -129 107 0
-383 129 0
-383 -107 0
384 -130 108 0
-384 130 0
-384 -108 0
385 -104 126 0
-385 104 0
-385 -126 0
386 -105 127 0
-386 105 0
-386 -127 0
387 -106 128 0
-387 106 0
-387 -128 0
388 -107 129 0
-388 107 0
-388 -129 0
389 -108 130 0
-389 108 0
-389 -130 0
390 -91 89 0
-390 91 0
-390 -89 0
391 -92 90 0
-391 92 0
-391 -90 0
392 -89 91 0
-392 89 0
-392 -91 0
393 -90 92 0
-393 90 0
-393 -92 0
394 -80 0
-394 80 0
395 -78 0
-395 78 0
396 -122 0
-396 122 0
397 -80 -78 0
-397 80 0
-397 78 0
398 -80 -122 0
-398 80 0
-398 122 0
399 -78 -122 0
-399 78 0
-399 122 0
182 -180 181 0
-182 180 0
-182 -181 0
400 -119 0
-400 119 0
401 -121 0
-401 121 0
402 -120 0
-402 120 0
403 -119 -121 0
-403 119 0
-403 121 0
404 -119 -120 0
-404 119 0
-404 120 0
405 -121 -120 0
-405 121 0
-405 120 0
185 -183 184 0
-185 183 0
-185 -184 0
186 0
187 0
188 0
189 0
190 0
191 0
192 0
193 0
194 0
195 0
196 0
197 0
198 0
199 0
200 0
201 0
202 0
203 0
204 0
205 0
206 0
207 0
208 0
209 0
210 0
211 0
212 0
213 0
214 0
215 0
216 0
217 0
218 0
219 0
220 0
221 0
222 0
223 0
224 0
225 0
226 0
227 0
228 0
229 0
230 0
231 0
232 0
233 0
234 0
235 0
236 0
237 0
238 0
239 0
240 0
241 0
242 0
243 0
244 0
245 0
246 0
247 0
248 0
249 0
250 0
251 0
252 0
253 0
254 0
255 0
256 0
257 0
258 0
259 0
260 0
261 0
262 0
263 0
264 0
265 0
266 0
267 0
268 0
269 0
270 0
271 0
272 0
273 0
274 0
275 0
276 0
277 0
278 0
279 0
280 0
281 0
282 0
283 0
284 0
285 0
286 0
287 0
288 0
289 0
290 0
291 0
292 0
293 0
294 0
295 0
296 0
297 0
298 0
299 0
300 0
301 0
302 0
303 0
304 0
305 0
306 62 0
-306 -62 0
307 63 0
-307 -63 0
308 64 0
-308 -64 0
309 65 0
-309 -65 0
310 66 0
-310 -66 0
311 89 0
-311 -89 0
312 90 0
-312 -90 0
313 91 0
-313 -91 0
314 92 0
-314 -92 0
315 104 0
-315 -104 0
316 105 0
-316 -105 0
317 106 0
-317 -106 0
318 107 0
-318 -107 0
319 108 0
-319 -108 0
320 110 0
-320 -110 0
321 111 0
-321 -111 0
322 112 0
-322 -112 0
323 113 0
-323 -113 0
324 114 0
-324 -114 0
325 117 0
-325 -117 0
326 118 0
-326 -118 0
327 123 0
-327 -123 0
328 124 0
-328 -124 0
329 126 0
-329 -126 0
330 127 0
-330 -127 0
331 128 0
-331 -128 0
332 129 0
-332 -129 0
333 130 0
-333 -130 0
334 -75 0
-334 75 0
335 80 0
-335 -80 0
336 78 0
-336 -78 0
337 122 0
-337 -122 0
338 -76 0
-338 76 0
339 119 0
-339 -119 0
340 121 0
-340 -121 0
341 120 0
-341 -120 0
-1 0
-2 0
-3 0
-4 0
-5 0
-6 0
-7 0
-8 0
-9 0
-10 0
-11 0
-12 0
-13 0
-14 0
-15 0
-16 0
-17 0
-18 0
-19 0
-20 0
-21 0
-22 0
-23 0
-24 0
-25 0
-26 0
-27 0
-28 0
-29 0
-30 0
-31 0
-32 0
-33 0
-34 0
-35 0
-36 0
-37 0
-38 0
-39 0
-40 0
-41 0
-42 0
-43 0
-44 0
-45 0
-46 0
-47 0
-48 0
-49 0
-50 0
-51 0
-52 0
-53 0
-54 0
-55 0
-56 0
-57 0
-58 0
-59 0
-60 0
-61 0
-68 342 343 0
68 -342 0
68 -343 0
-69 0
-70 0
-71 0
-72 0
-73 0
-74 0
-77 344 345 0
77 -344 0
77 -345 0
-79 346 347 0
79 -346 0
79 -347 0
-87 0
-88 0
-93 348 349 350 0
93 -348 0
93 -349 0
93 -350 0
-94 351 352 0
94 -351 0
94 -352 0
-95 0
-96 0
-97 0
-98 353 354 0
98 -353 0
98 -354 0
-99 355 356 357 0
99 -355 0
99 -356 0
99 -357 0
-100 358 359 0
100 -358 0
100 -359 0
-109 360 361 362 363 364 365 366 367 368 369 0
109 -360 0
109 -361 0
109 -362 0
109 -363 0
109 -364 0
109 -365 0
109 -366 0
109 -367 0
109 -368 0
109 -369 0
-115 0
-116 0
-119 370 371 0
119 -370 0
119 -371 0
-120 372 373 0
120 -372 0
120 -373 0
-121 374 375 0
121 -374 0
121 -375 0
-125 376 377 378 379 0
125 -376 0
125 -377 0
125 -378 0
125 -379 0
-131 380 381 382 383 384 385 386 387 388 389 0
131 -380 0
131 -381 0
131 -382 0
131 -383 0
131 -384 0
131 -385 0
131 -386 0
131 -387 0
131 -388 0
131 -389 0
-132 390 391 392 393 0
132 -390 0
132 -391 0
132 -392 0
132 -393 0
-133 0
-134 0
-135 0
-136 0
-137 0
-138 0
-139 0
-140 0
-141 0
-142 0
-143 0
-144 0
-145 0
-146 0
-147 0
-148 0
-149 0
-150 0
-151 0
-152 0
-153 0
-154 0
-155 0
-156 0
-157 0
-158 0
-159 0
-160 0
-161 0
-162 0
-163 0
-164 0
-165 0
-166 0
-167 0
-168 0
-169 0
-170 0
-171 0
-172 0
-173 0
-174 0
-175 0
-176 0
-177 0
-178 0
-179 0
-180 394 395 396 0
180 -394 0
180 -395 0
180 -396 0
-181 397 398 399 0
181 -397 0
181 -398 0
181 -399 0
-183 400 401 402 0
183 -400 0
183 -401 0
183 -402 0
-184 403 404 405 0
184 -403 0
184 -404 0
184 -405 0
